100 66664

 26 397
820 704
605 779
406 494
232 659
533 907
819 333
550 127
788 558
505 557
669 1
179 168
132 620
823 19
455 332
348 584
540 456
772 957
406 109
76 268
941 445
579 240
854 929
492 301
194 602
984 103
162 988
347 250
951 453
361 520
769 153
584 859
87 174
934 343
262 670
214 431
665 727
722 689
913 687
573 852
780 850
262 658
730 962
283 324
648 990
467 673
380 639
362 420
449 594
441 485
93 659
621 751
753 412
867 936
424 84
142 113
291 737
432 332
749 378
852 755
824 655
689 41
653 935
701 770
998 959
49 797
302 105
881 202
190 450
136 819
555 843
404 973
892 266
865 910
602 210
807 563
341 118
757 713
945 377
704 551
318 540
618 771
363 84
822 454
382 667
233 629
777 514
344 605
549 678
817 387
553 912
529 350
856 296
789 258
819 81
571 937
935 268
183 419
41 235
551 833
